
Log started (V12.1.0) Wed Dec  1 11:03:11 2010


Problem 'mipsep.lp' read.
Read time =    0.30 sec.
Tried aggregator 1 time.
MIP Presolve eliminated 13447 rows and 0 columns.
MIP Presolve modified 518 coefficients.
Reduced MIP has 83477 rows, 499 columns, and 179110 nonzeros.
Reduced MIP has 499 binaries, 0 generals, 0 SOSs, and 0 indicators.
Presolve time =    3.59 sec.
Clique table members: 83477.
MIP emphasis: balance optimality and feasibility.
MIP search method: dynamic search.
Parallel mode: deterministic, using up to 2 threads.
Root relaxation solution time =    0.81 sec.

        Nodes                                         Cuts/
   Node  Left     Objective  IInf  Best Integer     Best Node    ItCnt     Gap

*     0+    0                            0.0000                   1945     --- 
      0     0    -6634.0000   396        0.0000    -6634.0000     1945     --- 
*     0+    0                         -835.0000    -6634.0000     1945  694.49%

Log started (V12.1.0) Wed Dec  1 11:49:17 2010


Problem 'mipsep.lp' read.
Read time =    0.20 sec.
Tried aggregator 1 time.
MIP Presolve eliminated 13447 rows and 0 columns.
MIP Presolve modified 518 coefficients.
Reduced MIP has 83477 rows, 499 columns, and 179110 nonzeros.
Reduced MIP has 499 binaries, 0 generals, 0 SOSs, and 0 indicators.
Presolve time =    2.29 sec.
Clique table members: 83477.
MIP emphasis: balance optimality and feasibility.
MIP search method: dynamic search.
Parallel mode: deterministic, using up to 2 threads.
Root relaxation solution time =    0.61 sec.

        Nodes                                         Cuts/
   Node  Left     Objective  IInf  Best Integer     Best Node    ItCnt     Gap

*     0+    0                            0.0000                   1945     --- 
      0     0    -6634.0000   396        0.0000    -6634.0000     1945     --- 
*     0+    0                         -835.0000    -6634.0000     1945  694.49%
      0     0    -3260.7154   166     -835.0000   Cuts: 21165    22560  290.50%
*     0+    0                        -1326.0000    -3260.7154    22560  145.91%
      0     0    -2647.2362   155    -1326.0000     Cuts: 122    25607   99.64%
      0     0    -2496.7001   154    -1326.0000     Cuts: 123    27419   88.29%
      0     0    -2392.1013   138    -1326.0000      Cuts: 95    28684   80.40%
      0     0    -2316.1928   142    -1326.0000   Cliques: 80    29550   74.68%
      0     0    -2275.0046   136    -1326.0000   Cliques: 77    30157   71.57%
      0     0    -2252.3890   130    -1326.0000   Cliques: 70    30565   69.86%
      0     0    -2215.7395   132    -1326.0000   Cliques: 64    30922   67.10%
      0     0    -2185.7744   127    -1326.0000   Cliques: 53    31157   64.84%
      0     0    -2177.6051   129    -1326.0000   Cliques: 46    31328   64.22%
      0     0    -2132.3626   129    -1326.0000   Cliques: 56    31773   60.81%
      0     0    -2080.6155   134    -1326.0000      Cuts: 73    32394   56.91%
      0     0    -2065.7644   138    -1326.0000   Cliques: 69    32621   55.79%
      0     0    -2058.7595   135    -1326.0000   Cliques: 42    32814   55.26%
      0     0    -2048.4296   131    -1326.0000   Cliques: 19    32949   54.48%
      0     0    -2033.9640   136    -1326.0000   Cliques: 51    33237   53.39%
      0     0    -2026.4601   140    -1326.0000   Cliques: 25    33379   52.83%
      0     0    -2014.8144   137    -1326.0000   Cliques: 34    33656   51.95%
      0     0    -2000.9666   147    -1326.0000   Cliques: 51    33902   50.90%
      0     0    -1996.3319   150    -1326.0000   Cliques: 30    34071   50.55%
      0     0    -1992.8296   141    -1326.0000   Cliques: 24    34187   50.29%
      0     0    -1982.8922   137    -1326.0000   Cliques: 22    34332   49.54%
      0     0    -1977.7859   143    -1326.0000   Cliques: 52    34679   49.15%
      0     0    -1969.5154   134    -1326.0000      Cuts: 23    34816   48.53%
      0     0    -1958.0583   140    -1326.0000   Cliques: 40    35076   47.67%
      0     0    -1953.8110   137    -1326.0000   Cliques: 43    35277   47.35%
      0     0    -1950.7926   141    -1326.0000   Cliques: 24    35396   47.12%
      0     0    -1948.4175   146    -1326.0000   Cliques: 38    35534   46.94%
      0     0    -1943.3848   148    -1326.0000   Cliques: 25    35707   46.56%
      0     0    -1939.7896   148    -1326.0000   Cliques: 30    35840   46.29%
      0     0    -1938.9303   144    -1326.0000   Cliques: 14    35902   46.22%
      0     0    -1936.1236   150    -1326.0000   Cliques: 29    36060   46.01%
      0     0    -1931.0674   145    -1326.0000   Cliques: 33    36280   45.63%
      0     0    -1929.8418   148    -1326.0000   Cliques: 15    36374   45.54%
      0     0    -1929.4842   149    -1326.0000   Cliques: 11    36418   45.51%
      0     0    -1928.1358   142    -1326.0000   Cliques: 14    36523   45.41%
      0     0    -1921.4823   140    -1326.0000   Cliques: 17    36689   44.91%
      0     0    -1917.9481   149    -1326.0000   Cliques: 44    36883   44.64%
      0     0    -1917.0587   149    -1326.0000    Cliques: 9    36991   44.57%
      0     0    -1913.6409   142    -1326.0000   Cliques: 16    37146   44.32%
      0     0    -1910.6817   146    -1326.0000   Cliques: 46    37297   44.09%
      0     0    -1909.4710   149    -1326.0000   Cliques: 33    37414   44.00%
      0     0    -1906.1654   142    -1326.0000   Cliques: 24    37574   43.75%
      0     0    -1904.0774   148    -1326.0000   Cliques: 36    37680   43.60%
      0     0    -1901.7274   145    -1326.0000   Cliques: 35    37869   43.42%
      0     0    -1900.5147   150    -1326.0000   Cliques: 24    37977   43.33%
      0     0    -1899.6731   147    -1326.0000   Cliques: 18    38071   43.26%
*     0+    0                        -1626.0000    -1899.6731    38071   16.83%
      0     2    -1899.6731   147    -1626.0000    -1899.6731    38071   16.83%
Elapsed real time = 1129.30 sec. (tree size =  0.01 MB, solutions = 4)

Clique cuts applied:  146
Zero-half cuts applied:  2

Root node processing (before b&c):
  Real time             = 1126.61
Parallel b&c, 2 threads:
  Real time             =  160.03
  Sync time (average)   =   12.74
  Wait time (average)   =   58.18
                          -------
Total (root+branch&cut) = 1286.64 sec.

Solution pool: 4 solutions saved.

MIP - Integer optimal solution:  Objective = -1.6260000000e+03
Solution time = 1288.99 sec.  Iterations = 51238  Nodes = 43


Log started (V12.1.0) Wed Dec  1 15:10:43 2010


Problem 'mipsep.lp' read.
Read time =    2.64 sec.
Tried aggregator 1 time.
Presolve has eliminated 53976 rows and 0 columns...
MIP Presolve eliminated 53976 rows and 0 columns.
MIP Presolve modified 1078 coefficients.
Reduced MIP has 1345464 rows, 1715 columns, and 2726502 nonzeros.
Reduced MIP has 1715 binaries, 0 generals, 0 SOSs, and 0 indicators.
Presolve time =   48.43 sec.
Clique table members: 1345464.
MIP emphasis: balance optimality and feasibility.
MIP search method: dynamic search.
Parallel mode: deterministic, using up to 2 threads.
Root relaxation solution time =   13.89 sec.

        Nodes                                         Cuts/
   Node  Left     Objective  IInf  Best Integer     Best Node    ItCnt     Gap

*     0+    0                            0.0000                   2797     --- 
      0     0   -17876.0000  1655        0.0000   -17876.0000     2797     --- 
*     0+    0                        -1031.0000   -17876.0000     2797     --- 

Root node processing (before b&c):
  Real time             =  165.39
Parallel b&c, 2 threads:
  Real time             =    0.00
  Sync time (average)   =    0.00
  Wait time (average)   =    0.00
                          -------
Total (root+branch&cut) =  165.39 sec.
Warning: MIP starts not constructed because of out-of-memory status.
CPLEX Error  1001: Out of memory.

Solution pool: 2 solutions saved.

MIP - Error termination, integer feasible:  Objective = -1.0310000000e+03
Current MIP best bound = -1.7876000000e+04 (gap = 16845, 1.6e+03%)
Solution time =  213.85 sec.  Iterations = 2797  Nodes = 0 (1)


Log started (V12.1.0) Sun Dec 12 11:09:28 2010


Problem '10teams.lp' read.
Read time =    2.15 sec.
Tried aggregator 1 time.
Presolve has eliminated 49978 rows and 0 columns...
MIP Presolve eliminated 49978 rows and 0 columns.
MIP Presolve modified 1251 coefficients.
Reduced MIP has 1436822 rows, 1800 columns, and 2912485 nonzeros.
Reduced MIP has 1800 binaries, 0 generals, 0 SOSs, and 0 indicators.
Presolve time =   49.10 sec.
Clique table members: 1436822.
MIP emphasis: balance optimality and feasibility.
MIP search method: dynamic search.
Parallel mode: deterministic, using up to 2 threads.
Root relaxation solution time =   17.56 sec.

        Nodes                                         Cuts/
   Node  Left     Objective  IInf  Best Integer     Best Node    ItCnt     Gap

*     0+    0                            0.0000                   9978     --- 
      0     0   -20058.5000  1622        0.0000   -20058.5000     9978     --- 
*     0+    0                        -1043.0000   -20058.5000     9978     --- 
Elapsed time 10.07 sec. for 165 of 200 candidates for Gomory cuts

Clique cuts applied:  6191
Zero-half cuts applied:  772
Gomory fractional cuts applied:  2

Root node processing (before b&c):
  Real time             = 5631.33
Parallel b&c, 2 threads:
  Real time             =    0.00
  Sync time (average)   =    0.00
  Wait time (average)   =    0.00
                          -------
Total (root+branch&cut) = 5631.33 sec.

Solution pool: 2 solutions saved.

MIP - Aborted, integer feasible:  Objective = -1.0430000000e+03
Current MIP best bound = -2.0058500000e+04 (gap = 19015.5, 1.8e+03%)
Solution time = 5680.52 sec.  Iterations = 19532  Nodes = 0 (1)


Log started (V12.2.0.0) Tue Jan 11 15:27:22 2011


Problem 'air03.lp' read.
Read time =    0.07 sec.
Tried aggregator 1 time.
MIP Presolve eliminated 362 rows and 1 columns.
MIP Presolve modified 83 coefficients.
Reduced MIP has 108 rows, 33 columns, and 975 nonzeros.
Reduced MIP has 33 binaries, 0 generals, 0 SOSs, and 0 indicators.
Probing time =    0.00 sec.
Tried aggregator 1 time.
Presolve time =    0.04 sec.
Found feasible solution after 0.07 sec.  Objective = 0.0000
Probing time =    0.00 sec.
Clique table members: 108.
MIP emphasis: balance optimality and feasibility.
MIP search method: dynamic search.
Parallel mode: deterministic, using up to 2 threads.
Root relaxation solution time =    0.04 sec.

        Nodes                                         Cuts/
   Node  Left     Objective  IInf  Best Integer     Best Node    ItCnt     Gap

*     0+    0                            0.0000                     28     --- 
*     0+    0                        -1503.0000                     28     --- 
      0     0    -1941.5000    11    -1503.0000    -1941.5000       28   29.17%
      0     0    -1512.7500    17    -1503.0000      Cuts: 25       52    0.65%
      0     0        cutoff          -1503.0000    -1503.0000       52    0.00%
Elapsed real time =   0.21 sec. (tree size =  0.00 MB, solutions = 2)

Clique cuts applied:  3
Zero-half cuts applied:  1

Root node processing (before b&c):
  Real time             =    0.15
Parallel b&c, 2 threads:
  Real time             =    0.00
  Sync time (average)   =    0.00
  Wait time (average)   =    0.00
                          -------
Total (root+branch&cut) =    0.15 sec.

Solution pool: 2 solutions saved.

MIP - Integer optimal solution:  Objective = -1.5030000000e+03
Solution time =    0.21 sec.  Iterations = 52  Nodes = 0


Log started (V12.2.0.0) Fri Jan 14 20:40:25 2011


Problem 'qap10.lp' read.
Read time =    0.46 sec.
Tried aggregator 1 time.
Presolve has eliminated 48640 rows and 0 columns...
MIP Presolve eliminated 48640 rows and 0 columns.
MIP Presolve modified 71 coefficients.
Reduced MIP has 216482 rows, 732 columns, and 448790 nonzeros.
Reduced MIP has 732 binaries, 0 generals, 0 SOSs, and 0 indicators.
Probing time =    0.06 sec.
Tried aggregator 1 time.
MIP Presolve eliminated 8948 rows and 0 columns.
MIP Presolve modified 27 coefficients.
Reduced MIP has 207534 rows, 732 columns, and 436917 nonzeros.
Reduced MIP has 732 binaries, 0 generals, 0 SOSs, and 0 indicators.
Presolve time =   11.08 sec.
Found feasible solution after 11.25 sec.  Objective = 0.0000
Probing time =    0.09 sec.
Clique table members: 207534.
MIP emphasis: balance optimality and feasibility.
MIP search method: dynamic search.
Parallel mode: deterministic, using up to 2 threads.
Root relaxation solution time =    2.93 sec.

        Nodes                                         Cuts/
   Node  Left     Objective  IInf  Best Integer     Best Node    ItCnt     Gap

*     0+    0                            0.0000                    641     --- 
*     0+    0                         -255.0000                    641     --- 
      0     0   -16747.5000   488     -255.0000   -16747.5000      641     --- 

Clique cuts applied:  2536
Zero-half cuts applied:  5908
Gomory fractional cuts applied:  13

Root node processing (before b&c):
  Real time             =  199.94
Parallel b&c, 2 threads:
  Real time             =    0.00
  Sync time (average)   =    0.00
  Wait time (average)   =    0.00
                          -------
Total (root+branch&cut) =  199.94 sec.

Solution pool: 2 solutions saved.

MIP - Aborted, integer feasible:  Objective = -2.5500000000e+02
Current MIP best bound = -1.6747500000e+04 (gap = 16492.5, 6.5e+03%)
Solution time =  211.02 sec.  Iterations = 1355  Nodes = 0 (1)


Log started (V12.2.0.0) Fri Jan 14 20:45:32 2011


Problem 'net12.lp' read.
Read time =    0.14 sec.
Tried aggregator 1 time.
MIP Presolve eliminated 48511 rows and 0 columns.
MIP Presolve modified 35 coefficients.
Reduced MIP has 43567 rows, 430 columns, and 96864 nonzeros.
Reduced MIP has 430 binaries, 0 generals, 0 SOSs, and 0 indicators.
Probing time =    0.02 sec.
Tried aggregator 1 time.
MIP Presolve eliminated 2502 rows and 0 columns.
MIP Presolve modified 9 coefficients.
Reduced MIP has 41065 rows, 430 columns, and 94362 nonzeros.
Reduced MIP has 430 binaries, 0 generals, 0 SOSs, and 0 indicators.
Presolve time =    2.18 sec.
Found feasible solution after 2.21 sec.  Objective = 0.0000
Probing time =    0.02 sec.
Clique table members: 41065.
MIP emphasis: balance optimality and feasibility.
MIP search method: dynamic search.
Parallel mode: deterministic, using up to 2 threads.
Root relaxation solution time =    0.22 sec.

        Nodes                                         Cuts/
   Node  Left     Objective  IInf  Best Integer     Best Node    ItCnt     Gap

*     0+    0                            0.0000                    152     --- 
*     0+    0                         -999.0000                    152     --- 
      0     0   -26317.5000   151     -999.0000   -26317.5000      152     --- 
*     0+    0                        -1000.0000   -26317.5000      152     --- 
      0     0    -2277.0000     9    -1000.0000    Cuts: 1711      457  127.70%
      0     0    -1664.3333     7    -1000.0000      Cuts: 16      480   66.43%
      0     0    -1319.0000     5    -1000.0000      Cuts: 18      500   31.90%

Repeating presolve.
Tried aggregator 1 time.
MIP Presolve eliminated 28355 rows and 210 columns.
MIP Presolve modified 24 coefficients.
Reduced MIP has 12710 rows, 220 columns, and 29444 nonzeros.
Reduced MIP has 220 binaries, 0 generals, 0 SOSs, and 0 indicators.
Probing time =    0.01 sec.
Tried aggregator 1 time.
MIP Presolve eliminated 1263 rows and 0 columns.
MIP Presolve modified 15 coefficients.
Reduced MIP has 11447 rows, 220 columns, and 28181 nonzeros.
Reduced MIP has 220 binaries, 0 generals, 0 SOSs, and 0 indicators.
Represolve time =    0.53 sec.
Probing time =    0.01 sec.
Clique table members: 11447.
MIP emphasis: balance optimality and feasibility.
MIP search method: dynamic search.
Parallel mode: deterministic, using up to 2 threads.
Tried aggregator 1 time.
DUAL formed by presolve
Reduced LP has 220 rows, 11677 columns, and 28966 nonzeros.
Root relaxation solution time =    0.07 sec.

        Nodes                                         Cuts/
   Node  Left     Objective  IInf  Best Integer     Best Node    ItCnt     Gap

*     0+    0                        -1000.0000    -1319.0000      608   31.90%
      0     0    -1277.9000    10    -1000.0000    -1277.9000      608   27.79%
      0     2    -1277.9000    10    -1000.0000    -1277.9000      608   27.79%
Elapsed real time =  57.97 sec. (tree size =  0.01 MB, solutions = 3)

Clique cuts applied:  5
Zero-half cuts applied:  5

Root node processing (before b&c):
  Real time             =   55.77
Parallel b&c, 2 threads:
  Real time             =    0.34
  Sync time (average)   =    0.00
  Wait time (average)   =    0.16
                          -------
Total (root+branch&cut) =   56.11 sec.

Solution pool: 3 solutions saved.

MIP - Integer optimal solution:  Objective = -1.0000000000e+03
Solution time =   58.29 sec.  Iterations = 978  Nodes = 52


Log started (V12.2.0.0) Fri Jan 14 20:48:23 2011

CPLEX Error  1464: Line 224960: Identifier/name too long to process.
No file read.
No problem exists.
